Welcome to the CBC MILP Solver 
Version: 2.8.9 
Build Date: Jan 25 2015 

command line - cbc SimpleKernel_schedule_C.mps.gz -solve -printi csv -solu SimpleKernel_schedule_C.csv (default strategy 1)
At line 1 NAME           CxSchedule
At line 2 ROWS
At line 14 COLUMNS
At line 34 RHS
At line 41 BOUNDS
At line 55 ENDATA
Problem CxSchedule has 10 rows, 13 columns and 24 elements
Coin0008I CxSchedule read with 0 errors
Continuous objective value is 0 - 0.00 seconds
Cgl0003I 0 fixed, 11 tightened bounds, 0 strengthened rows, 0 substitutions
Cgl0004I processed model has 9 rows, 10 columns (10 integer) and 22 elements
Cutoff increment increased from 1e-05 to 0.9999
Cbc0012I Integer solution of 0 found by DiveCoefficient after 0 iterations and 0 nodes (0.00 seconds)
Cbc0001I Search completed - best objective 0, took 0 iterations and 0 nodes (0.00 seconds)
Cbc0035I Maximum depth 0, 0 variables fixed on reduced cost
Cuts at root node changed objective from 0 to 0
Probing was tried 0 times and created 0 cuts of which 0 were active after adding rounds of cuts (0.000 seconds)
Gomory was tried 0 times and created 0 cuts of which 0 were active after adding rounds of cuts (0.000 seconds)
Knapsack was tried 0 times and created 0 cuts of which 0 were active after adding rounds of cuts (0.000 seconds)
Clique was tried 0 times and created 0 cuts of which 0 were active after adding rounds of cuts (0.000 seconds)
MixedIntegerRounding2 was tried 0 times and created 0 cuts of which 0 were active after adding rounds of cuts (0.000 seconds)
FlowCover was tried 0 times and created 0 cuts of which 0 were active after adding rounds of cuts (0.000 seconds)
TwoMirCuts was tried 0 times and created 0 cuts of which 0 were active after adding rounds of cuts (0.000 seconds)

Result - Optimal solution found

Objective value:                0.00000000
Enumerated nodes:               0
Total iterations:               0
Time (CPU seconds):             0.00
Time (Wallclock seconds):       0.02

Option for printingOptions changed from normal to csv
Total time (CPU seconds):       0.00   (Wallclock seconds):       0.02

